
Gurobi 13.0.2 (win64) logging started Thu Jul 23 06:00:52 2026

Set parameter LogFile to value "E:\codes\ExactEBRP\results\gf_cplex_equivalent_gurobi_replica_round28\runs\stage2__moderate_seed4302__c3_replica__300s\external\native_logs\R.0.0.0.1.1.1.1.1_lp.gurobi.log"
Gurobi Optimizer version 13.0.2 build v13.0.2rc1 (win64 - Windows 10.0 (19045.2))

CPU model: 12th Gen Intel(R) Core(TM) i7-12700KF, instruction set [SSE2|AVX|AVX2]
Thread count: 12 physical cores, 20 logical processors, using up to 1 threads

Non-default parameters:
TimeLimit  98.7581677
MIPGap  0
MIPGapAbs  0
LogToConsole  0
Threads  1

Optimize a model with 11919 rows, 3378 columns and 67378 nonzeros (Min)
Model fingerprint: 0x045af0f0
Model has 21 linear objective coefficients
Coefficient statistics:
  Matrix range     [6e-03, 2e+04]
  Objective range  [7e-03, 1e+00]
  Bounds range     [6e-03, 1e+02]
  RHS range        [6e-03, 5e+04]

Presolve removed 708 rows and 104 columns
Presolve time: 0.04s
Presolved: 11211 rows, 3419 columns, 64560 nonzeros

Iteration    Objective       Primal Inf.    Dual Inf.      Time
       0    5.8782368e-03   1.457971e+02   0.000000e+00      0s
    1163    5.8782368e-03   0.000000e+00   0.000000e+00      0s

Solved in 1163 iterations and 0.09 seconds (0.25 work units)
Optimal objective  5.878236816e-03

User-callback calls 1308, time in user-callback 0.00 sec
